logs/drand/max/drand-07-075-0.sol
# Objective value = 7
x0,1_21 0
x0,1_38 0
x0,1_43 0
x0,1_48 0
x0,1_58 0
x0,1_59 0
x0,1_69 0
x0,2_21 0
x0,2_38 0
x0,2_43 0
x0,2_48 0
x0,2_58 0
x0,2_59 0
x0,2_69 0
x0,3_21 0
x0,3_38 0
x0,3_43 1
x0,3_48 0
x0,3_58 0
x0,3_59 0
x0,3_69 0
x0,4_21 0
x0,4_38 0
x0,4_43 0
x0,4_48 1
x0,4_58 0
x0,4_59 0
x0,4_69 0
x0,5_21 0
x0,5_38 0
x0,5_43 0
x0,5_48 0
x0,5_58 0
x0,5_59 0
x0,5_69 1
x1,2_21 0
x1,2_38 0
x1,2_43 0
x1,2_48 0
x1,2_58 0
x1,2_59 0
x1,2_69 0
x1,3_21 0
x1,3_38 0
x1,3_43 0
x1,3_48 0
x1,3_58 0
x1,3_59 0
x1,3_69 0
x1,4_21 0
x1,4_38 1
x1,4_43 0
x1,4_48 0
x1,4_58 0
x1,4_59 0
x1,4_69 0
x1,5_21 0
x1,5_38 0
x1,5_43 0
x1,5_48 0
x1,5_58 0
x1,5_59 1
x1,5_69 0
x2,3_21 0
x2,3_38 0
x2,3_43 0
x2,3_48 0
x2,3_58 0
x2,3_59 0
x2,3_69 0
x2,4_21 0
x2,4_38 0
x2,4_43 0
x2,4_48 0
x2,4_58 0
x2,4_59 0
x2,4_69 0
x2,5_21 0
x2,5_38 0
x2,5_43 0
x2,5_48 0
x2,5_58 1
x2,5_59 0
x2,5_69 0
x3,4_21 0
x3,4_38 0
x3,4_43 0
x3,4_48 0
x3,4_58 0
x3,4_59 0
x3,4_69 0
x3,5_21 0
x3,5_38 0
x3,5_43 0
x3,5_48 0
x3,5_58 0
x3,5_59 0
x3,5_69 0
x4,5_21 1
x4,5_38 0
x4,5_43 0
x4,5_48 0
x4,5_58 0
x4,5_59 0
x4,5_69 0
p0 0
p1 10
p2 11
p3 43
p4 48
p5 69
